c automorphism group size 6
p cnf 75 1884
1 2 3 4 5 6 7 8 9 10 11 12 13 14 15 16 17 18 19 20 21 22 23 24 25 0
26 27 28 29 30 31 32 33 34 35 36 37 38 39 40 41 42 43 44 45 46 47 48 49 50 0
51 52 53 54 55 56 57 58 59 60 61 62 63 64 65 66 67 68 69 70 71 72 73 74 75 0
-1 -2 0
-1 -3 0
-1 -4 0
-1 -5 0
-1 -6 0
-1 -7 0
-1 -8 0
-1 -9 0
-1 -10 0
-1 -11 0
-1 -12 0
-1 -13 0
-1 -14 0
-1 -15 0
-1 -16 0
-1 -17 0
-1 -18 0
-1 -19 0
-1 -20 0
-1 -21 0
-1 -22 0
-1 -23 0
-1 -24 0
-1 -25 0
-2 -3 0
-2 -4 0
-2 -5 0
-2 -6 0
-2 -7 0
-2 -8 0
-2 -9 0
-2 -10 0
-2 -11 0
-2 -12 0
-2 -13 0
-2 -14 0
-2 -15 0
-2 -16 0
-2 -17 0
-2 -18 0
-2 -19 0
-2 -20 0
-2 -21 0
-2 -22 0
-2 -23 0
-2 -24 0
-2 -25 0
-3 -4 0
-3 -5 0
-3 -6 0
-3 -7 0
-3 -8 0
-3 -9 0
-3 -10 0
-3 -11 0
-3 -12 0
-3 -13 0
-3 -14 0
-3 -15 0
-3 -16 0
-3 -17 0
-3 -18 0
-3 -19 0
-3 -20 0
-3 -21 0
-3 -22 0
-3 -23 0
-3 -24 0
-3 -25 0
-4 -5 0
-4 -6 0
-4 -7 0
-4 -8 0
-4 -9 0
-4 -10 0
-4 -11 0
-4 -12 0
-4 -13 0
-4 -14 0
-4 -15 0
-4 -16 0
-4 -17 0
-4 -18 0
-4 -19 0
-4 -20 0
-4 -21 0
-4 -22 0
-4 -23 0
-4 -24 0
-4 -25 0
-5 -6 0
-5 -7 0
-5 -8 0
-5 -9 0
-5 -10 0
-5 -11 0
-5 -12 0
-5 -13 0
-5 -14 0
-5 -15 0
-5 -16 0
-5 -17 0
-5 -18 0
-5 -19 0
-5 -20 0
-5 -21 0
-5 -22 0
-5 -23 0
-5 -24 0
-5 -25 0
-6 -7 0
-6 -8 0
-6 -9 0
-6 -10 0
-6 -11 0
-6 -12 0
-6 -13 0
-6 -14 0
-6 -15 0
-6 -16 0
-6 -17 0
-6 -18 0
-6 -19 0
-6 -20 0
-6 -21 0
-6 -22 0
-6 -23 0
-6 -24 0
-6 -25 0
-7 -8 0
-7 -9 0
-7 -10 0
-7 -11 0
-7 -12 0
-7 -13 0
-7 -14 0
-7 -15 0
-7 -16 0
-7 -17 0
-7 -18 0
-7 -19 0
-7 -20 0
-7 -21 0
-7 -22 0
-7 -23 0
-7 -24 0
-7 -25 0
-8 -9 0
-8 -10 0
-8 -11 0
-8 -12 0
-8 -13 0
-8 -14 0
-8 -15 0
-8 -16 0
-8 -17 0
-8 -18 0
-8 -19 0
-8 -20 0
-8 -21 0
-8 -22 0
-8 -23 0
-8 -24 0
-8 -25 0
-9 -10 0
-9 -11 0
-9 -12 0
-9 -13 0
-9 -14 0
-9 -15 0
-9 -16 0
-9 -17 0
-9 -18 0
-9 -19 0
-9 -20 0
-9 -21 0
-9 -22 0
-9 -23 0
-9 -24 0
-9 -25 0
-10 -11 0
-10 -12 0
-10 -13 0
-10 -14 0
-10 -15 0
-10 -16 0
-10 -17 0
-10 -18 0
-10 -19 0
-10 -20 0
-10 -21 0
-10 -22 0
-10 -23 0
-10 -24 0
-10 -25 0
-11 -12 0
-11 -13 0
-11 -14 0
-11 -15 0
-11 -16 0
-11 -17 0
-11 -18 0
-11 -19 0
-11 -20 0
-11 -21 0
-11 -22 0
-11 -23 0
-11 -24 0
-11 -25 0
-12 -13 0
-12 -14 0
-12 -15 0
-12 -16 0
-12 -17 0
-12 -18 0
-12 -19 0
-12 -20 0
-12 -21 0
-12 -22 0
-12 -23 0
-12 -24 0
-12 -25 0
-13 -14 0
-13 -15 0
-13 -16 0
-13 -17 0
-13 -18 0
-13 -19 0
-13 -20 0
-13 -21 0
-13 -22 0
-13 -23 0
-13 -24 0
-13 -25 0
-14 -15 0
-14 -16 0
-14 -17 0
-14 -18 0
-14 -19 0
-14 -20 0
-14 -21 0
-14 -22 0
-14 -23 0
-14 -24 0
-14 -25 0
-15 -16 0
-15 -17 0
-15 -18 0
-15 -19 0
-15 -20 0
-15 -21 0
-15 -22 0
-15 -23 0
-15 -24 0
-15 -25 0
-16 -17 0
-16 -18 0
-16 -19 0
-16 -20 0
-16 -21 0
-16 -22 0
-16 -23 0
-16 -24 0
-16 -25 0
-17 -18 0
-17 -19 0
-17 -20 0
-17 -21 0
-17 -22 0
-17 -23 0
-17 -24 0
-17 -25 0
-18 -19 0
-18 -20 0
-18 -21 0
-18 -22 0
-18 -23 0
-18 -24 0
-18 -25 0
-19 -20 0
-19 -21 0
-19 -22 0
-19 -23 0
-19 -24 0
-19 -25 0
-20 -21 0
-20 -22 0
-20 -23 0
-20 -24 0
-20 -25 0
-21 -22 0
-21 -23 0
-21 -24 0
-21 -25 0
-22 -23 0
-22 -24 0
-22 -25 0
-23 -24 0
-23 -25 0
-24 -25 0
-26 -27 0
-26 -28 0
-26 -29 0
-26 -30 0
-26 -31 0
-26 -32 0
-26 -33 0
-26 -34 0
-26 -35 0
-26 -36 0
-26 -37 0
-26 -38 0
-26 -39 0
-26 -40 0
-26 -41 0
-26 -42 0
-26 -43 0
-26 -44 0
-26 -45 0
-26 -46 0
-26 -47 0
-26 -48 0
-26 -49 0
-26 -50 0
-27 -28 0
-27 -29 0
-27 -30 0
-27 -31 0
-27 -32 0
-27 -33 0
-27 -34 0
-27 -35 0
-27 -36 0
-27 -37 0
-27 -38 0
-27 -39 0
-27 -40 0
-27 -41 0
-27 -42 0
-27 -43 0
-27 -44 0
-27 -45 0
-27 -46 0
-27 -47 0
-27 -48 0
-27 -49 0
-27 -50 0
-28 -29 0
-28 -30 0
-28 -31 0
-28 -32 0
-28 -33 0
-28 -34 0
-28 -35 0
-28 -36 0
-28 -37 0
-28 -38 0
-28 -39 0
-28 -40 0
-28 -41 0
-28 -42 0
-28 -43 0
-28 -44 0
-28 -45 0
-28 -46 0
-28 -47 0
-28 -48 0
-28 -49 0
-28 -50 0
-29 -30 0
-29 -31 0
-29 -32 0
-29 -33 0
-29 -34 0
-29 -35 0
-29 -36 0
-29 -37 0
-29 -38 0
-29 -39 0
-29 -40 0
-29 -41 0
-29 -42 0
-29 -43 0
-29 -44 0
-29 -45 0
-29 -46 0
-29 -47 0
-29 -48 0
-29 -49 0
-29 -50 0
-30 -31 0
-30 -32 0
-30 -33 0
-30 -34 0
-30 -35 0
-30 -36 0
-30 -37 0
-30 -38 0
-30 -39 0
-30 -40 0
-30 -41 0
-30 -42 0
-30 -43 0
-30 -44 0
-30 -45 0
-30 -46 0
-30 -47 0
-30 -48 0
-30 -49 0
-30 -50 0
-31 -32 0
-31 -33 0
-31 -34 0
-31 -35 0
-31 -36 0
-31 -37 0
-31 -38 0
-31 -39 0
-31 -40 0
-31 -41 0
-31 -42 0
-31 -43 0
-31 -44 0
-31 -45 0
-31 -46 0
-31 -47 0
-31 -48 0
-31 -49 0
-31 -50 0
-32 -33 0
-32 -34 0
-32 -35 0
-32 -36 0
-32 -37 0
-32 -38 0
-32 -39 0
-32 -40 0
-32 -41 0
-32 -42 0
-32 -43 0
-32 -44 0
-32 -45 0
-32 -46 0
-32 -47 0
-32 -48 0
-32 -49 0
-32 -50 0
-33 -34 0
-33 -35 0
-33 -36 0
-33 -37 0
-33 -38 0
-33 -39 0
-33 -40 0
-33 -41 0
-33 -42 0
-33 -43 0
-33 -44 0
-33 -45 0
-33 -46 0
-33 -47 0
-33 -48 0
-33 -49 0
-33 -50 0
-34 -35 0
-34 -36 0
-34 -37 0
-34 -38 0
-34 -39 0
-34 -40 0
-34 -41 0
-34 -42 0
-34 -43 0
-34 -44 0
-34 -45 0
-34 -46 0
-34 -47 0
-34 -48 0
-34 -49 0
-34 -50 0
-35 -36 0
-35 -37 0
-35 -38 0
-35 -39 0
-35 -40 0
-35 -41 0
-35 -42 0
-35 -43 0
-35 -44 0
-35 -45 0
-35 -46 0
-35 -47 0
-35 -48 0
-35 -49 0
-35 -50 0
-36 -37 0
-36 -38 0
-36 -39 0
-36 -40 0
-36 -41 0
-36 -42 0
-36 -43 0
-36 -44 0
-36 -45 0
-36 -46 0
-36 -47 0
-36 -48 0
-36 -49 0
-36 -50 0
-37 -38 0
-37 -39 0
-37 -40 0
-37 -41 0
-37 -42 0
-37 -43 0
-37 -44 0
-37 -45 0
-37 -46 0
-37 -47 0
-37 -48 0
-37 -49 0
-37 -50 0
-38 -39 0
-38 -40 0
-38 -41 0
-38 -42 0
-38 -43 0
-38 -44 0
-38 -45 0
-38 -46 0
-38 -47 0
-38 -48 0
-38 -49 0
-38 -50 0
-39 -40 0
-39 -41 0
-39 -42 0
-39 -43 0
-39 -44 0
-39 -45 0
-39 -46 0
-39 -47 0
-39 -48 0
-39 -49 0
-39 -50 0
-40 -41 0
-40 -42 0
-40 -43 0
-40 -44 0
-40 -45 0
-40 -46 0
-40 -47 0
-40 -48 0
-40 -49 0
-40 -50 0
-41 -42 0
-41 -43 0
-41 -44 0
-41 -45 0
-41 -46 0
-41 -47 0
-41 -48 0
-41 -49 0
-41 -50 0
-42 -43 0
-42 -44 0
-42 -45 0
-42 -46 0
-42 -47 0
-42 -48 0
-42 -49 0
-42 -50 0
-43 -44 0
-43 -45 0
-43 -46 0
-43 -47 0
-43 -48 0
-43 -49 0
-43 -50 0
-44 -45 0
-44 -46 0
-44 -47 0
-44 -48 0
-44 -49 0
-44 -50 0
-45 -46 0
-45 -47 0
-45 -48 0
-45 -49 0
-45 -50 0
-46 -47 0
-46 -48 0
-46 -49 0
-46 -50 0
-47 -48 0
-47 -49 0
-47 -50 0
-48 -49 0
-48 -50 0
-49 -50 0
-51 -52 0
-51 -53 0
-51 -54 0
-51 -55 0
-51 -56 0
-51 -57 0
-51 -58 0
-51 -59 0
-51 -60 0
-51 -61 0
-51 -62 0
-51 -63 0
-51 -64 0
-51 -65 0
-51 -66 0
-51 -67 0
-51 -68 0
-51 -69 0
-51 -70 0
-51 -71 0
-51 -72 0
-51 -73 0
-51 -74 0
-51 -75 0
-52 -53 0
-52 -54 0
-52 -55 0
-52 -56 0
-52 -57 0
-52 -58 0
-52 -59 0
-52 -60 0
-52 -61 0
-52 -62 0
-52 -63 0
-52 -64 0
-52 -65 0
-52 -66 0
-52 -67 0
-52 -68 0
-52 -69 0
-52 -70 0
-52 -71 0
-52 -72 0
-52 -73 0
-52 -74 0
-52 -75 0
-53 -54 0
-53 -55 0
-53 -56 0
-53 -57 0
-53 -58 0
-53 -59 0
-53 -60 0
-53 -61 0
-53 -62 0
-53 -63 0
-53 -64 0
-53 -65 0
-53 -66 0
-53 -67 0
-53 -68 0
-53 -69 0
-53 -70 0
-53 -71 0
-53 -72 0
-53 -73 0
-53 -74 0
-53 -75 0
-54 -55 0
-54 -56 0
-54 -57 0
-54 -58 0
-54 -59 0
-54 -60 0
-54 -61 0
-54 -62 0
-54 -63 0
-54 -64 0
-54 -65 0
-54 -66 0
-54 -67 0
-54 -68 0
-54 -69 0
-54 -70 0
-54 -71 0
-54 -72 0
-54 -73 0
-54 -74 0
-54 -75 0
-55 -56 0
-55 -57 0
-55 -58 0
-55 -59 0
-55 -60 0
-55 -61 0
-55 -62 0
-55 -63 0
-55 -64 0
-55 -65 0
-55 -66 0
-55 -67 0
-55 -68 0
-55 -69 0
-55 -70 0
-55 -71 0
-55 -72 0
-55 -73 0
-55 -74 0
-55 -75 0
-56 -57 0
-56 -58 0
-56 -59 0
-56 -60 0
-56 -61 0
-56 -62 0
-56 -63 0
-56 -64 0
-56 -65 0
-56 -66 0
-56 -67 0
-56 -68 0
-56 -69 0
-56 -70 0
-56 -71 0
-56 -72 0
-56 -73 0
-56 -74 0
-56 -75 0
-57 -58 0
-57 -59 0
-57 -60 0
-57 -61 0
-57 -62 0
-57 -63 0
-57 -64 0
-57 -65 0
-57 -66 0
-57 -67 0
-57 -68 0
-57 -69 0
-57 -70 0
-57 -71 0
-57 -72 0
-57 -73 0
-57 -74 0
-57 -75 0
-58 -59 0
-58 -60 0
-58 -61 0
-58 -62 0
-58 -63 0
-58 -64 0
-58 -65 0
-58 -66 0
-58 -67 0
-58 -68 0
-58 -69 0
-58 -70 0
-58 -71 0
-58 -72 0
-58 -73 0
-58 -74 0
-58 -75 0
-59 -60 0
-59 -61 0
-59 -62 0
-59 -63 0
-59 -64 0
-59 -65 0
-59 -66 0
-59 -67 0
-59 -68 0
-59 -69 0
-59 -70 0
-59 -71 0
-59 -72 0
-59 -73 0
-59 -74 0
-59 -75 0
-60 -61 0
-60 -62 0
-60 -63 0
-60 -64 0
-60 -65 0
-60 -66 0
-60 -67 0
-60 -68 0
-60 -69 0
-60 -70 0
-60 -71 0
-60 -72 0
-60 -73 0
-60 -74 0
-60 -75 0
-61 -62 0
-61 -63 0
-61 -64 0
-61 -65 0
-61 -66 0
-61 -67 0
-61 -68 0
-61 -69 0
-61 -70 0
-61 -71 0
-61 -72 0
-61 -73 0
-61 -74 0
-61 -75 0
-62 -63 0
-62 -64 0
-62 -65 0
-62 -66 0
-62 -67 0
-62 -68 0
-62 -69 0
-62 -70 0
-62 -71 0
-62 -72 0
-62 -73 0
-62 -74 0
-62 -75 0
-63 -64 0
-63 -65 0
-63 -66 0
-63 -67 0
-63 -68 0
-63 -69 0
-63 -70 0
-63 -71 0
-63 -72 0
-63 -73 0
-63 -74 0
-63 -75 0
-64 -65 0
-64 -66 0
-64 -67 0
-64 -68 0
-64 -69 0
-64 -70 0
-64 -71 0
-64 -72 0
-64 -73 0
-64 -74 0
-64 -75 0
-65 -66 0
-65 -67 0
-65 -68 0
-65 -69 0
-65 -70 0
-65 -71 0
-65 -72 0
-65 -73 0
-65 -74 0
-65 -75 0
-66 -67 0
-66 -68 0
-66 -69 0
-66 -70 0
-66 -71 0
-66 -72 0
-66 -73 0
-66 -74 0
-66 -75 0
-67 -68 0
-67 -69 0
-67 -70 0
-67 -71 0
-67 -72 0
-67 -73 0
-67 -74 0
-67 -75 0
-68 -69 0
-68 -70 0
-68 -71 0
-68 -72 0
-68 -73 0
-68 -74 0
-68 -75 0
-69 -70 0
-69 -71 0
-69 -72 0
-69 -73 0
-69 -74 0
-69 -75 0
-70 -71 0
-70 -72 0
-70 -73 0
-70 -74 0
-70 -75 0
-71 -72 0
-71 -73 0
-71 -74 0
-71 -75 0
-72 -73 0
-72 -74 0
-72 -75 0
-73 -74 0
-73 -75 0
-74 -75 0
-1 -26 0
-1 -27 0
-2 -26 0
-1 -31 0
-6 -26 0
-1 -33 0
-8 -26 0
-1 -35 0
-10 -26 0
-1 -36 0
-11 -26 0
-1 -38 0
-13 -26 0
-1 -40 0
-15 -26 0
-1 -41 0
-16 -26 0
-1 -43 0
-18 -26 0
-1 -45 0
-20 -26 0
-1 -46 0
-21 -26 0
-1 -48 0
-23 -26 0
-1 -50 0
-25 -26 0
-2 -27 0
-2 -31 0
-6 -27 0
-2 -32 0
-7 -27 0
-2 -35 0
-10 -27 0
-2 -36 0
-11 -27 0
-2 -37 0
-12 -27 0
-2 -38 0
-13 -27 0
-2 -39 0
-14 -27 0
-2 -40 0
-15 -27 0
-2 -42 0
-17 -27 0
-2 -44 0
-19 -27 0
-2 -48 0
-23 -27 0
-2 -49 0
-24 -27 0
-3 -28 0
-3 -33 0
-8 -28 0
-3 -34 0
-9 -28 0
-3 -36 0
-11 -28 0
-3 -37 0
-12 -28 0
-3 -40 0
-15 -28 0
-3 -41 0
-16 -28 0
-3 -42 0
-17 -28 0
-3 -43 0
-18 -28 0
-3 -44 0
-19 -28 0
-3 -45 0
-20 -28 0
-3 -47 0
-22 -28 0
-3 -49 0
-24 -28 0
-4 -29 0
-4 -32 0
-7 -29 0
-4 -34 0
-9 -29 0
-4 -38 0
-13 -29 0
-4 -39 0
-14 -29 0
-4 -41 0
-16 -29 0
-4 -42 0
-17 -29 0
-4 -45 0
-20 -29 0
-4 -46 0
-21 -29 0
-4 -47 0
-22 -29 0
-4 -48 0
-23 -29 0
-4 -49 0
-24 -29 0
-4 -50 0
-25 -29 0
-5 -30 0
-5 -31 0
-6 -30 0
-5 -32 0
-7 -30 0
-5 -33 0
-8 -30 0
-5 -34 0
-9 -30 0
-5 -35 0
-10 -30 0
-5 -37 0
-12 -30 0
-5 -39 0
-14 -30 0
-5 -43 0
-18 -30 0
-5 -44 0
-19 -30 0
-5 -46 0
-21 -30 0
-5 -47 0
-22 -30 0
-5 -50 0
-25 -30 0
-6 -31 0
-6 -34 0
-9 -31 0
-6 -35 0
-10 -31 0
-6 -36 0
-11 -31 0
-6 -41 0
-16 -31 0
-6 -42 0
-17 -31 0
-6 -44 0
-19 -31 0
-6 -46 0
-21 -31 0
-6 -47 0
-22 -31 0
-6 -48 0
-23 -31 0
-7 -32 0
-7 -33 0
-8 -32 0
-7 -34 0
-9 -32 0
-7 -36 0
-11 -32 0
-7 -38 0
-13 -32 0
-7 -39 0
-14 -32 0
-7 -40 0
-15 -32 0
-7 -41 0
-16 -32 0
-7 -44 0
-19 -32 0
-7 -50 0
-25 -32 0
-8 -33 0
-8 -36 0
-11 -33 0
-8 -38 0
-13 -33 0
-8 -43 0
-18 -33 0
-8 -44 0
-19 -33 0
-8 -47 0
-22 -33 0
-8 -48 0
-23 -33 0
-8 -49 0
-24 -33 0
-8 -50 0
-25 -33 0
-9 -34 0
-9 -35 0
-10 -34 0
-9 -38 0
-13 -34 0
-9 -40 0
-15 -34 0
-9 -41 0
-16 -34 0
-9 -42 0
-17 -34 0
-9 -43 0
-18 -34 0
-9 -47 0
-22 -34 0
-10 -35 0
-10 -37 0
-12 -35 0
-10 -38 0
-13 -35 0
-10 -40 0
-15 -35 0
-10 -45 0
-20 -35 0
-10 -47 0
-22 -35 0
-10 -49 0
-24 -35 0
-10 -50 0
-25 -35 0
-11 -36 0
-11 -39 0
-14 -36 0
-11 -40 0
-15 -36 0
-11 -41 0
-16 -36 0
-11 -46 0
-21 -36 0
-11 -47 0
-22 -36 0
-11 -49 0
-24 -36 0
-12 -37 0
-12 -38 0
-13 -37 0
-12 -39 0
-14 -37 0
-12 -41 0
-16 -37 0
-12 -43 0
-18 -37 0
-12 -44 0
-19 -37 0
-12 -45 0
-20 -37 0
-12 -46 0
-21 -37 0
-12 -49 0
-24 -37 0
-13 -38 0
-13 -41 0
-16 -38 0
-13 -43 0
-18 -38 0
-13 -48 0
-23 -38 0
-13 -49 0
-24 -38 0
-14 -39 0
-14 -40 0
-15 -39 0
-14 -43 0
-18 -39 0
-14 -45 0
-20 -39 0
-14 -46 0
-21 -39 0
-14 -47 0
-22 -39 0
-14 -48 0
-23 -39 0
-15 -40 0
-15 -42 0
-17 -40 0
-15 -43 0
-18 -40 0
-15 -45 0
-20 -40 0
-15 -50 0
-25 -40 0
-16 -41 0
-16 -44 0
-19 -41 0
-16 -45 0
-20 -41 0
-16 -46 0
-21 -41 0
-17 -42 0
-17 -43 0
-18 -42 0
-17 -44 0
-19 -42 0
-17 -46 0
-21 -42 0
-17 -48 0
-23 -42 0
-17 -49 0
-24 -42 0
-17 -50 0
-25 -42 0
-18 -43 0
-18 -46 0
-21 -43 0
-18 -48 0
-23 -43 0
-19 -44 0
-19 -45 0
-20 -44 0
-19 -48 0
-23 -44 0
-19 -50 0
-25 -44 0
-20 -45 0
-20 -47 0
-22 -45 0
-20 -48 0
-23 -45 0
-20 -50 0
-25 -45 0
-21 -46 0
-21 -49 0
-24 -46 0
-21 -50 0
-25 -46 0
-22 -47 0
-22 -48 0
-23 -47 0
-22 -49 0
-24 -47 0
-23 -48 0
-24 -49 0
-24 -50 0
-25 -49 0
-25 -50 0
-1 -51 0
-1 -52 0
-2 -51 0
-1 -56 0
-6 -51 0
-1 -58 0
-8 -51 0
-1 -60 0
-10 -51 0
-1 -61 0
-11 -51 0
-1 -63 0
-13 -51 0
-1 -65 0
-15 -51 0
-1 -66 0
-16 -51 0
-1 -68 0
-18 -51 0
-1 -70 0
-20 -51 0
-1 -71 0
-21 -51 0
-1 -73 0
-23 -51 0
-1 -75 0
-25 -51 0
-2 -52 0
-2 -56 0
-6 -52 0
-2 -57 0
-7 -52 0
-2 -60 0
-10 -52 0
-2 -61 0
-11 -52 0
-2 -62 0
-12 -52 0
-2 -63 0
-13 -52 0
-2 -64 0
-14 -52 0
-2 -65 0
-15 -52 0
-2 -67 0
-17 -52 0
-2 -69 0
-19 -52 0
-2 -73 0
-23 -52 0
-2 -74 0
-24 -52 0
-3 -53 0
-3 -58 0
-8 -53 0
-3 -59 0
-9 -53 0
-3 -61 0
-11 -53 0
-3 -62 0
-12 -53 0
-3 -65 0
-15 -53 0
-3 -66 0
-16 -53 0
-3 -67 0
-17 -53 0
-3 -68 0
-18 -53 0
-3 -69 0
-19 -53 0
-3 -70 0
-20 -53 0
-3 -72 0
-22 -53 0
-3 -74 0
-24 -53 0
-4 -54 0
-4 -57 0
-7 -54 0
-4 -59 0
-9 -54 0
-4 -63 0
-13 -54 0
-4 -64 0
-14 -54 0
-4 -66 0
-16 -54 0
-4 -67 0
-17 -54 0
-4 -70 0
-20 -54 0
-4 -71 0
-21 -54 0
-4 -72 0
-22 -54 0
-4 -73 0
-23 -54 0
-4 -74 0
-24 -54 0
-4 -75 0
-25 -54 0
-5 -55 0
-5 -56 0
-6 -55 0
-5 -57 0
-7 -55 0
-5 -58 0
-8 -55 0
-5 -59 0
-9 -55 0
-5 -60 0
-10 -55 0
-5 -62 0
-12 -55 0
-5 -64 0
-14 -55 0
-5 -68 0
-18 -55 0
-5 -69 0
-19 -55 0
-5 -71 0
-21 -55 0
-5 -72 0
-22 -55 0
-5 -75 0
-25 -55 0
-6 -56 0
-6 -59 0
-9 -56 0
-6 -60 0
-10 -56 0
-6 -61 0
-11 -56 0
-6 -66 0
-16 -56 0
-6 -67 0
-17 -56 0
-6 -69 0
-19 -56 0
-6 -71 0
-21 -56 0
-6 -72 0
-22 -56 0
-6 -73 0
-23 -56 0
-7 -57 0
-7 -58 0
-8 -57 0
-7 -59 0
-9 -57 0
-7 -61 0
-11 -57 0
-7 -63 0
-13 -57 0
-7 -64 0
-14 -57 0
-7 -65 0
-15 -57 0
-7 -66 0
-16 -57 0
-7 -69 0
-19 -57 0
-7 -75 0
-25 -57 0
-8 -58 0
-8 -61 0
-11 -58 0
-8 -63 0
-13 -58 0
-8 -68 0
-18 -58 0
-8 -69 0
-19 -58 0
-8 -72 0
-22 -58 0
-8 -73 0
-23 -58 0
-8 -74 0
-24 -58 0
-8 -75 0
-25 -58 0
-9 -59 0
-9 -60 0
-10 -59 0
-9 -63 0
-13 -59 0
-9 -65 0
-15 -59 0
-9 -66 0
-16 -59 0
-9 -67 0
-17 -59 0
-9 -68 0
-18 -59 0
-9 -72 0
-22 -59 0
-10 -60 0
-10 -62 0
-12 -60 0
-10 -63 0
-13 -60 0
-10 -65 0
-15 -60 0
-10 -70 0
-20 -60 0
-10 -72 0
-22 -60 0
-10 -74 0
-24 -60 0
-10 -75 0
-25 -60 0
-11 -61 0
-11 -64 0
-14 -61 0
-11 -65 0
-15 -61 0
-11 -66 0
-16 -61 0
-11 -71 0
-21 -61 0
-11 -72 0
-22 -61 0
-11 -74 0
-24 -61 0
-12 -62 0
-12 -63 0
-13 -62 0
-12 -64 0
-14 -62 0
-12 -66 0
-16 -62 0
-12 -68 0
-18 -62 0
-12 -69 0
-19 -62 0
-12 -70 0
-20 -62 0
-12 -71 0
-21 -62 0
-12 -74 0
-24 -62 0
-13 -63 0
-13 -66 0
-16 -63 0
-13 -68 0
-18 -63 0
-13 -73 0
-23 -63 0
-13 -74 0
-24 -63 0
-14 -64 0
-14 -65 0
-15 -64 0
-14 -68 0
-18 -64 0
-14 -70 0
-20 -64 0
-14 -71 0
-21 -64 0
-14 -72 0
-22 -64 0
-14 -73 0
-23 -64 0
-15 -65 0
-15 -67 0
-17 -65 0
-15 -68 0
-18 -65 0
-15 -70 0
-20 -65 0
-15 -75 0
-25 -65 0
-16 -66 0
-16 -69 0
-19 -66 0
-16 -70 0
-20 -66 0
-16 -71 0
-21 -66 0
-17 -67 0
-17 -68 0
-18 -67 0
-17 -69 0
-19 -67 0
-17 -71 0
-21 -67 0
-17 -73 0
-23 -67 0
-17 -74 0
-24 -67 0
-17 -75 0
-25 -67 0
-18 -68 0
-18 -71 0
-21 -68 0
-18 -73 0
-23 -68 0
-19 -69 0
-19 -70 0
-20 -69 0
-19 -73 0
-23 -69 0
-19 -75 0
-25 -69 0
-20 -70 0
-20 -72 0
-22 -70 0
-20 -73 0
-23 -70 0
-20 -75 0
-25 -70 0
-21 -71 0
-21 -74 0
-24 -71 0
-21 -75 0
-25 -71 0
-22 -72 0
-22 -73 0
-23 -72 0
-22 -74 0
-24 -72 0
-23 -73 0
-24 -74 0
-24 -75 0
-25 -74 0
-25 -75 0
-26 -51 0
-26 -52 0
-27 -51 0
-26 -56 0
-31 -51 0
-26 -58 0
-33 -51 0
-26 -60 0
-35 -51 0
-26 -61 0
-36 -51 0
-26 -63 0
-38 -51 0
-26 -65 0
-40 -51 0
-26 -66 0
-41 -51 0
-26 -68 0
-43 -51 0
-26 -70 0
-45 -51 0
-26 -71 0
-46 -51 0
-26 -73 0
-48 -51 0
-26 -75 0
-50 -51 0
-27 -52 0
-27 -56 0
-31 -52 0
-27 -57 0
-32 -52 0
-27 -60 0
-35 -52 0
-27 -61 0
-36 -52 0
-27 -62 0
-37 -52 0
-27 -63 0
-38 -52 0
-27 -64 0
-39 -52 0
-27 -65 0
-40 -52 0
-27 -67 0
-42 -52 0
-27 -69 0
-44 -52 0
-27 -73 0
-48 -52 0
-27 -74 0
-49 -52 0
-28 -53 0
-28 -58 0
-33 -53 0
-28 -59 0
-34 -53 0
-28 -61 0
-36 -53 0
-28 -62 0
-37 -53 0
-28 -65 0
-40 -53 0
-28 -66 0
-41 -53 0
-28 -67 0
-42 -53 0
-28 -68 0
-43 -53 0
-28 -69 0
-44 -53 0
-28 -70 0
-45 -53 0
-28 -72 0
-47 -53 0
-28 -74 0
-49 -53 0
-29 -54 0
-29 -57 0
-32 -54 0
-29 -59 0
-34 -54 0
-29 -63 0
-38 -54 0
-29 -64 0
-39 -54 0
-29 -66 0
-41 -54 0
-29 -67 0
-42 -54 0
-29 -70 0
-45 -54 0
-29 -71 0
-46 -54 0
-29 -72 0
-47 -54 0
-29 -73 0
-48 -54 0
-29 -74 0
-49 -54 0
-29 -75 0
-50 -54 0
-30 -55 0
-30 -56 0
-31 -55 0
-30 -57 0
-32 -55 0
-30 -58 0
-33 -55 0
-30 -59 0
-34 -55 0
-30 -60 0
-35 -55 0
-30 -62 0
-37 -55 0
-30 -64 0
-39 -55 0
-30 -68 0
-43 -55 0
-30 -69 0
-44 -55 0
-30 -71 0
-46 -55 0
-30 -72 0
-47 -55 0
-30 -75 0
-50 -55 0
-31 -56 0
-31 -59 0
-34 -56 0
-31 -60 0
-35 -56 0
-31 -61 0
-36 -56 0
-31 -66 0
-41 -56 0
-31 -67 0
-42 -56 0
-31 -69 0
-44 -56 0
-31 -71 0
-46 -56 0
-31 -72 0
-47 -56 0
-31 -73 0
-48 -56 0
-32 -57 0
-32 -58 0
-33 -57 0
-32 -59 0
-34 -57 0
-32 -61 0
-36 -57 0
-32 -63 0
-38 -57 0
-32 -64 0
-39 -57 0
-32 -65 0
-40 -57 0
-32 -66 0
-41 -57 0
-32 -69 0
-44 -57 0
-32 -75 0
-50 -57 0
-33 -58 0
-33 -61 0
-36 -58 0
-33 -63 0
-38 -58 0
-33 -68 0
-43 -58 0
-33 -69 0
-44 -58 0
-33 -72 0
-47 -58 0
-33 -73 0
-48 -58 0
-33 -74 0
-49 -58 0
-33 -75 0
-50 -58 0
-34 -59 0
-34 -60 0
-35 -59 0
-34 -63 0
-38 -59 0
-34 -65 0
-40 -59 0
-34 -66 0
-41 -59 0
-34 -67 0
-42 -59 0
-34 -68 0
-43 -59 0
-34 -72 0
-47 -59 0
-35 -60 0
-35 -62 0
-37 -60 0
-35 -63 0
-38 -60 0
-35 -65 0
-40 -60 0
-35 -70 0
-45 -60 0
-35 -72 0
-47 -60 0
-35 -74 0
-49 -60 0
-35 -75 0
-50 -60 0
-36 -61 0
-36 -64 0
-39 -61 0
-36 -65 0
-40 -61 0
-36 -66 0
-41 -61 0
-36 -71 0
-46 -61 0
-36 -72 0
-47 -61 0
-36 -74 0
-49 -61 0
-37 -62 0
-37 -63 0
-38 -62 0
-37 -64 0
-39 -62 0
-37 -66 0
-41 -62 0
-37 -68 0
-43 -62 0
-37 -69 0
-44 -62 0
-37 -70 0
-45 -62 0
-37 -71 0
-46 -62 0
-37 -74 0
-49 -62 0
-38 -63 0
-38 -66 0
-41 -63 0
-38 -68 0
-43 -63 0
-38 -73 0
-48 -63 0
-38 -74 0
-49 -63 0
-39 -64 0
-39 -65 0
-40 -64 0
-39 -68 0
-43 -64 0
-39 -70 0
-45 -64 0
-39 -71 0
-46 -64 0
-39 -72 0
-47 -64 0
-39 -73 0
-48 -64 0
-40 -65 0
-40 -67 0
-42 -65 0
-40 -68 0
-43 -65 0
-40 -70 0
-45 -65 0
-40 -75 0
-50 -65 0
-41 -66 0
-41 -69 0
-44 -66 0
-41 -70 0
-45 -66 0
-41 -71 0
-46 -66 0
-42 -67 0
-42 -68 0
-43 -67 0
-42 -69 0
-44 -67 0
-42 -71 0
-46 -67 0
-42 -73 0
-48 -67 0
-42 -74 0
-49 -67 0
-42 -75 0
-50 -67 0
-43 -68 0
-43 -71 0
-46 -68 0
-43 -73 0
-48 -68 0
-44 -69 0
-44 -70 0
-45 -69 0
-44 -73 0
-48 -69 0
-44 -75 0
-50 -69 0
-45 -70 0
-45 -72 0
-47 -70 0
-45 -73 0
-48 -70 0
-45 -75 0
-50 -70 0
-46 -71 0
-46 -74 0
-49 -71 0
-46 -75 0
-50 -71 0
-47 -72 0
-47 -73 0
-48 -72 0
-47 -74 0
-49 -72 0
-48 -73 0
-49 -74 0
-49 -75 0
-50 -74 0
-50 -75 0
